************************************************************************
file with basedata            : md370_.bas
initial value random generator: 1158329395
************************************************************************
projects                      :  1
jobs (incl. supersource/sink ):  22
horizon                       :  158
RESOURCES
  - renewable                 :  2   R
  - nonrenewable              :  2   N
  - doubly constrained        :  0   D
************************************************************************
PROJECT INFORMATION:
pronr.  #jobs rel.date duedate tardcost  MPM-Time
    1     20      0       29       14       29
************************************************************************
PRECEDENCE RELATIONS:
jobnr.    #modes  #successors   successors
   1        1          3           2   3   4
   2        3          3           5  15  21
   3        3          2           8  11
   4        3          3           6   7  13
   5        3          2          11  20
   6        3          3          10  11  14
   7        3          2          18  20
   8        3          2           9  20
   9        3          3          10  12  13
  10        3          2          15  16
  11        3          1          19
  12        3          2          14  16
  13        3          2          14  16
  14        3          2          15  18
  15        3          1          19
  16        3          1          17
  17        3          2          18  19
  18        3          1          21
  19        3          1          22
  20        3          1          22
  21        3          1          22
  22        1          0        
************************************************************************
REQUESTS/DURATIONS:
jobnr. mode duration  R 1  R 2  N 1  N 2
------------------------------------------------------------------------
  1      1     0       0    0    0    0
  2      1     7      10    0    5    5
         2     8       0    4    1    5
         3     8       7    0    2    4
  3      1     1       6    0    8    9
         2     7       0    8    6    7
         3     9       4    0    5    7
  4      1     1       0    6    8    7
         2     4       0    5    6    4
         3     5       6    0    4    1
  5      1     3       0    6    8    7
         2     5       0    6    7    5
         3     6       7    0    6    5
  6      1     1       9    0    3    4
         2     2       8    0    2    3
         3     4       5    0    2    3
  7      1     1       7    0    6    5
         2     4       0    6    5    3
         3    10       3    0    4    2
  8      1     2       0    2    7   10
         2     4       5    0    4    8
         3     5       0    2    2    6
  9      1     6       0    3    5    5
         2     6       8    0    4    1
         3     6       8    0    1    4
 10      1     5       7    0    3    6
         2     6       4    0    3    5
         3     9       0    2    2    5
 11      1     6       0    4    8    3
         2     6       6    0    7    3
         3     9       0    4    7    2
 12      1     5       3    0    9    5
         2     9       3    0    7    4
         3    10       0    1    5    4
 13      1     1       0    1    5    2
         2     4       6    0    5    1
         3    10       0    1    5    1
 14      1     4       5    0    8    9
         2     8       5    0    4    7
         3    10       4    0    1    5
 15      1     2       5    0   10    8
         2     5       0    3   10    6
         3     9       0    2   10    6
 16      1     7       0    8    9    8
         2     7       5    0   10    9
         3     8       3    0    9    1
 17      1     3       0    3    7    4
         2     3       7    0    9    4
         3     7       0    3    2    2
 18      1     1       0    4    9    7
         2     8       0    2    9    6
         3    10       7    0    8    6
 19      1     5       8    0    2    9
         2     6       6    0    1    7
         3     7       0    9    1    3
 20      1     6       5    0    6    4
         2     7       5    0    4    2
         3     7       5    0    2    3
 21      1     4       0   10    9    2
         2     6       0    8    9    1
         3     9       0    7    9    1
 22      1     0       0    0    0    0
************************************************************************
RESOURCEAVAILABILITIES:
  R 1  R 2  N 1  N 2
   20   13  125  107
************************************************************************
MAXIMAL LAGS:
from  to  type  delay
    1   22   ES      0
    1    2   ES      0
    2   22   ES      0
    1    3   ES      0
    3   22   ES      0
    1    4   ES      0
    4   22   ES      0
    1    5   ES      0
    5   22   ES      0
    1    6   ES      0
    6   22   ES      0
    1    7   ES      0
    7   22   ES      0
    1    8   ES      0
    8   22   ES      0
    1    9   ES      0
    9   22   ES      0
    1   10   ES      0
   10   22   ES      0
    1   11   ES      0
   11   22   ES      0
    1   12   ES      0
   12   22   ES      0
    1   13   ES      0
   13   22   ES      0
    1   14   ES      0
   14   22   ES      0
    1   15   ES      0
   15   22   ES      0
    1   16   ES      0
   16   22   ES      0
    1   17   ES      0
   17   22   ES      0
    1   18   ES      0
   18   22   ES      0
    1   19   ES      0
   19   22   ES      0
    1   20   ES      0
   20   22   ES      0
    1   21   ES      0
   21   22   ES      0
    1   22   ES      0
    2    5   SS     -2
    2    5   SE      8
    2    5   ES     -9
    2    5   EE     11
    2   15   SS     -3
    2   15   SE     -3
    2   15   ES      4
    2   15   EE      3
    2   21   SS      1
    2   21   SE     -7
    2   21   ES     -9
    2   21   EE      1
    3    8   SS     -3
    3    8   SE      5
    3    8   ES     -5
    3    8   EE     11
    3   11   SS     -4
    3   11   SE      9
    3   11   ES     -8
    3   11   EE      2
    4    6   SS     10
    4    6   SE      6
    4    6   ES      2
    4    6   EE     -5
    4    7   SS    -11
    4    7   SE     -7
    4    7   ES      6
    4    7   EE     -3
    4   13   SS    -11
    4   13   SE      1
    4   13   ES      6
    4   13   EE     -2
    5   11   SS      3
    5   11   SE     -7
    5   11   ES     -1
    5   11   EE     -7
    5   20   SS      9
    5   20   SE    -11
    5   20   ES     -7
    5   20   EE     -5
    6   10   SS     11
    6   10   SE     12
    6   10   ES     -1
    6   10   EE      4
    6   11   SS      7
    6   11   SE     -6
    6   11   ES      2
    6   11   EE      2
    6   14   SS     12
    6   14   SE     -9
    6   14   ES     -7
    6   14   EE     -1
    7   18   SS      5
    7   18   SE     -7
    7   18   ES      5
    7   18   EE     -4
    7   20   SS      4
    7   20   SE     12
    7   20   ES      5
    7   20   EE      7
    8    9   SS    -10
    8    9   SE      6
    8    9   ES      9
    8    9   EE     10
    8   20   SS      6
    8   20   SE     -3
    8   20   ES      7
    8   20   EE     -1
    9   10   SS    -10
    9   10   SE      0
    9   10   ES      9
    9   10   EE     11
    9   12   SS     -2
    9   12   SE      7
    9   12   ES      6
    9   12   EE    -10
    9   13   SS     11
    9   13   SE     10
    9   13   ES     10
    9   13   EE      6
   10   15   SS     -4
   10   15   SE     -2
   15   10   SE      0
   10   15   ES      0
   10   15   EE      9
   10   16   SS     -3
   10   16   SE     -3
   10   16   ES      1
   10   16   EE     -4
   11   19   SS     12
   11   19   SE     -2
   11   19   ES     -8
   11   19   EE     -5
   12   14   SS      6
   12   14   SE    -12
   12   14   ES    -12
   12   14   EE     -4
   12   16   SS    -10
   12   16   SE     -1
   12   16   ES     -7
   12   16   EE     -3
   13   14   SS     -8
   13   14   SE     11
   13   14   ES      4
   13   14   EE      0
   13   16   SS      3
   13   16   SE      5
   13   16   ES     -1
   13   16   EE     -2
   14   15   SS     -4
   14   15   SE      3
   14   15   ES    -12
   14   15   EE    -10
   14   18   SS      4
   14   18   SE      6
   14   18   ES      3
   14   18   EE     12
   15   19   SS      3
   15   19   SE      7
   15   19   ES      9
   15   19   EE     -1
   16   17   SS     12
   16   17   SE    -11
   16   17   ES     -9
   16   17   EE      9
   17   18   SS     -3
   17   18   SE      0
   17   18   ES      2
   17   18   EE    -11
   17   19   SS     11
   17   19   SE      7
   17   19   ES      9
   17   19   EE     12
   18   21   SS     -5
   18   21   SE      1
   18   21   ES      3
   18   21   EE     -8
************************************************************************
